c Random 8-CNF over 40 variables and 80 clauses
c Generated with `cnfgen`
c (C) 2012-2016 Massimo Lauria <lauria.massimo@gmail.com>
c https://massimolauria.github.io/cnfgen
c
c COMMAND LINE: cnfgen --output tmp-8-40-80.dimacs --output-format dimacs randkcnf 8 40 80
c
c sdimacs generated by gen-sdimacs
c
p cnf 40 80
r 0.5 1 2 3 4 5 6 7 8 9 10 11 12 13 14 15 16 17 18 19 20 0
e  21 22 23 24 25 26 27 28 29 30 31 32 33 34 35 36 37 38 39 40 0
-4 6 -23 -25 26 -32 34 -40 0
-2 17 -23 24 30 -33 -34 37 0
-11 -14 18 24 26 31 37 -39 0
-4 6 -9 -14 -18 -32 36 38 0
-1 -3 -19 21 26 -28 37 40 0
-2 5 -10 11 19 -34 36 -37 0
-5 -8 9 -21 -32 33 36 -37 0
-6 -7 -14 16 23 25 -35 36 0
1 -12 -13 -19 -28 31 -33 -34 0
5 -10 16 -17 19 31 35 -39 0
3 -7 9 17 18 24 26 -40 0
1 3 22 26 -31 35 -38 -39 0
-3 6 7 -17 -23 25 -32 39 0
5 9 -12 -13 16 -17 29 -39 0
-1 -4 -9 -20 22 -24 -26 40 0
-1 3 -5 10 12 -23 -25 -34 0
-3 8 -9 -14 15 -27 28 -30 0
7 8 9 -18 -21 -23 -29 37 0
1 5 15 -16 -20 22 -26 30 0
-2 -5 -7 8 22 29 36 38 0
1 -5 -14 -15 18 -28 -33 40 0
2 11 13 15 -18 21 -32 34 0
-2 -5 13 -19 30 -33 -36 -38 0
2 -10 -12 -15 -21 22 29 -31 0
-1 2 4 10 -11 -18 -27 -28 0
2 -14 15 17 21 28 29 37 0
-2 -7 11 14 -16 20 23 25 0
3 -10 12 -14 29 35 -38 -39 0
7 -15 25 -26 -27 -33 39 40 0
9 10 11 18 -24 -26 -27 30 0
12 16 19 20 -21 25 -26 30 0
11 -18 19 20 -24 -26 -33 -35 0
4 -9 14 17 -30 -33 36 37 0
-4 6 -9 20 24 32 -33 -36 0
-4 -12 -16 18 26 -31 33 35 0
-3 -5 -7 -10 -14 -27 29 -39 0
2 -8 -21 25 -28 31 32 -40 0
2 3 -7 11 26 -32 -36 37 0
5 11 -18 -24 -29 30 36 38 0
3 -5 -10 16 19 25 -28 37 0
-4 6 9 15 -16 21 25 33 0
3 -4 -17 -19 20 25 -36 -37 0
14 -17 -21 -26 -27 -28 -30 -36 0
-1 -3 -5 -9 -18 19 -24 -30 0
3 -13 15 21 -22 31 -33 -40 0
-3 -7 -15 17 -20 30 -35 37 0
1 2 6 -9 -14 20 -28 -36 0
8 15 -16 -27 28 34 36 39 0
-1 9 11 -20 -30 31 -32 -35 0
2 7 8 -9 10 29 -32 36 0
6 8 9 -13 16 -17 28 37 0
-2 3 -11 -15 24 26 28 35 0
6 -10 22 23 -24 -35 39 -40 0
-10 16 -20 28 -31 36 -39 -40 0
1 13 18 -24 -25 -35 -36 -39 0
-4 16 18 -19 -21 -23 26 -31 0
2 -9 -13 17 -18 19 22 37 0
-1 10 13 -14 -15 -16 18 25 0
-1 -16 17 -28 29 32 35 -39 0
-3 -11 14 17 22 -27 32 40 0
-2 -5 9 -12 -13 22 -24 -33 0
-3 8 -19 20 23 -25 27 -36 0
-1 11 16 -21 -27 28 29 30 0
3 -13 -18 -22 24 -36 39 40 0
-4 13 -15 17 23 -25 -31 -33 0
4 6 7 -11 14 15 -27 -28 0
4 -6 -8 11 13 -14 33 40 0
-1 11 -18 21 23 -33 36 -39 0
6 7 -11 -12 29 -31 -34 35 0
13 -15 18 -27 28 34 -35 38 0
-7 10 -26 30 32 -36 -37 40 0
-2 3 -7 -14 -23 30 33 34 0
-3 -11 -15 -20 -29 -30 -32 35 0
-11 -13 19 21 -25 27 -29 -36 0
-1 -2 3 6 7 -29 -31 32 0
13 -15 17 26 31 -35 38 40 0
-6 -10 11 12 -19 -21 -25 38 0
-9 -11 -12 16 19 24 32 -38 0
-10 -12 -13 -20 -24 -25 -26 -39 0
-6 13 15 -20 22 25 -26 36 0
